p tw 32 48
1 2
1 8
1 9
2 3
2 10
11 18
11 20
12 19
12 21
13 20
13 22
14 21
14 23
15 22
15 24
16 17
16 23
17 25
18 26
19 27
20 28
3 11
3 4
21 29
22 30
23 31
24 32
25 28
25 30
26 29
26 31
27 30
27 32
28 31
29 32
4 12
4 5
5 13
5 6
6 14
6 7
7 15
7 8
8 16
9 18
9 24
10 17
10 19
